c FILE: I11.clq
c
c SOURCE: Generated by Breno Maurício de Freitas Viana
c         writed
c
c           Graph Stats
c number of vertices  : 31
c number of edges     : 60
p col 31 60
e 1 2
e 1 9
e 1 10
e 1 11
e 2 5
e 2 12
e 2 13
e 3 4
e 3 12
e 3 13
e 3 15
e 4 5
e 4 14
e 4 16
e 5 6
e 5 19
e 6 7
e 6 18
e 6 24
e 7 8
e 7 18
e 7 24
e 7 28
e 7 29
e 7 30
e 7 31
e 8 25
e 8 28
e 8 29
e 8 30
e 8 31
e 9 10
e 9 11
e 10 11
e 12 14
e 15 16
e 16 17
e 16 18
e 18 24
e 19 20
e 19 21
e 19 22
e 19 23
e 20 21
e 20 22
e 20 23
e 21 22
e 21 23
e 22 23
e 23 28
e 24 25
e 25 26
e 25 27
e 26 27
e 28 29
e 28 30
e 28 31
e 29 30
e 29 31
e 30 31